p cnf 390 1200
c weights 1.0 1.0 2.718281828459045 0.36787944117144233 2.718281828459045 0.36787944117144233 2.718281828459045 0.36787944117144233 2.718281828459045 0.36787944117144233 2.718281828459045 0.36787944117144233 2.718281828459045 0.36787944117144233 1.0 1.0 2.718281828459045 0.36787944117144233 2.718281828459045 0.36787944117144233 2.718281828459045 0.36787944117144233 2.718281828459045 0.36787944117144233 2.718281828459045 0.36787944117144233 2.718281828459045 0.36787944117144233 2.718281828459045 0.36787944117144233 1.0 1.0 2.718281828459045 0.36787944117144233 2.718281828459045 0.36787944117144233 2.718281828459045 0.36787944117144233 2.718281828459045 0.36787944117144233 2.718281828459045 0.36787944117144233 2.718281828459045 0.36787944117144233 2.718281828459045 0.36787944117144233 2.718281828459045 0.36787944117144233 1.0 1.0 2.718281828459045 0.36787944117144233 2.718281828459045 0.36787944117144233 2.718281828459045 0.36787944117144233 2.718281828459045 0.36787944117144233 2.718281828459045 0.36787944117144233 2.718281828459045 0.36787944117144233 2.718281828459045 0.36787944117144233 2.718281828459045 0.36787944117144233 2.718281828459045 0.36787944117144233 2.718281828459045 0.36787944117144233 2.718281828459045 0.36787944117144233 2.718281828459045 0.36787944117144233 1.0 1.0 2.718281828459045 0.36787944117144233 2.718281828459045 0.36787944117144233 2.718281828459045 0.36787944117144233 2.718281828459045 0.36787944117144233 2.718281828459045 0.36787944117144233 2.718281828459045 0.36787944117144233 2.718281828459045 0.36787944117144233 2.718281828459045 0.36787944117144233 1.0 1.0 2.718281828459045 0.36787944117144233 2.718281828459045 0.36787944117144233 2.718281828459045 0.36787944117144233 2.718281828459045 0.36787944117144233 2.718281828459045 0.36787944117144233 2.718281828459045 0.36787944117144233 1.0 1.0 2.718281828459045 0.36787944117144233 2.718281828459045 0.36787944117144233 2.718281828459045 0.36787944117144233 2.718281828459045 0.36787944117144233 2.718281828459045 0.36787944117144233 2.718281828459045 0.36787944117144233 2.718281828459045 0.36787944117144233 2.718281828459045 0.36787944117144233 1.0 1.0 2.718281828459045 0.36787944117144233 2.718281828459045 0.36787944117144233 2.718281828459045 0.36787944117144233 2.718281828459045 0.36787944117144233 2.718281828459045 0.36787944117144233 1.0 1.0 2.718281828459045 0.36787944117144233 2.718281828459045 0.36787944117144233 2.718281828459045 0.36787944117144233 2.718281828459045 0.36787944117144233 2.718281828459045 0.36787944117144233 2.718281828459045 0.36787944117144233 2.718281828459045 0.36787944117144233 2.718281828459045 0.36787944117144233 2.718281828459045 0.36787944117144233 1.0 1.0 2.718281828459045 0.36787944117144233 2.718281828459045 0.36787944117144233 2.718281828459045 0.36787944117144233 2.718281828459045 0.36787944117144233 2.718281828459045 0.36787944117144233 1.0 1.0 2.718281828459045 0.36787944117144233 2.718281828459045 0.36787944117144233 2.718281828459045 0.36787944117144233 2.718281828459045 0.36787944117144233 2.718281828459045 0.36787944117144233 2.718281828459045 0.36787944117144233 1.0 1.0 2.718281828459045 0.36787944117144233 2.718281828459045 0.36787944117144233 2.718281828459045 0.36787944117144233 2.718281828459045 0.36787944117144233 2.718281828459045 0.36787944117144233 2.718281828459045 0.36787944117144233 2.718281828459045 0.36787944117144233 2.718281828459045 0.36787944117144233 2.718281828459045 0.36787944117144233 2.718281828459045 0.36787944117144233 1.0 1.0 2.718281828459045 0.36787944117144233 2.718281828459045 0.36787944117144233 2.718281828459045 0.36787944117144233 2.718281828459045 0.36787944117144233 2.718281828459045 0.36787944117144233 2.718281828459045 0.36787944117144233 1.0 1.0 2.718281828459045 0.36787944117144233 2.718281828459045 0.36787944117144233 2.718281828459045 0.36787944117144233 1.0 1.0 2.718281828459045 0.36787944117144233 2.718281828459045 0.36787944117144233 2.718281828459045 0.36787944117144233 2.718281828459045 0.36787944117144233 2.718281828459045 0.36787944117144233 2.718281828459045 0.36787944117144233 2.718281828459045 0.36787944117144233 1.0 1.0 2.718281828459045 0.36787944117144233 2.718281828459045 0.36787944117144233 2.718281828459045 0.36787944117144233 2.718281828459045 0.36787944117144233 1.0 1.0 2.718281828459045 0.36787944117144233 2.718281828459045 0.36787944117144233 2.718281828459045 0.36787944117144233 2.718281828459045 0.36787944117144233 2.718281828459045 0.36787944117144233 1.0 1.0 2.718281828459045 0.36787944117144233 2.718281828459045 0.36787944117144233 2.718281828459045 0.36787944117144233 2.718281828459045 0.36787944117144233 2.718281828459045 0.36787944117144233 2.718281828459045 0.36787944117144233 2.718281828459045 0.36787944117144233 2.718281828459045 0.36787944117144233 2.718281828459045 0.36787944117144233 2.718281828459045 0.36787944117144233 2.718281828459045 0.36787944117144233 1.0 1.0 2.718281828459045 0.36787944117144233 2.718281828459045 0.36787944117144233 2.718281828459045 0.36787944117144233 1.0 1.0 2.718281828459045 0.36787944117144233 2.718281828459045 0.36787944117144233 2.718281828459045 0.36787944117144233 2.718281828459045 0.36787944117144233 1.0 1.0 2.718281828459045 0.36787944117144233 2.718281828459045 0.36787944117144233 2.718281828459045 0.36787944117144233 2.718281828459045 0.36787944117144233 2.718281828459045 0.36787944117144233 2.718281828459045 0.36787944117144233 2.718281828459045 0.36787944117144233 2.718281828459045 0.36787944117144233 1.0 1.0 2.718281828459045 0.36787944117144233 2.718281828459045 0.36787944117144233 2.718281828459045 0.36787944117144233 2.718281828459045 0.36787944117144233 1.0 1.0 2.718281828459045 0.36787944117144233 2.718281828459045 0.36787944117144233 2.718281828459045 0.36787944117144233 2.718281828459045 0.36787944117144233 2.718281828459045 0.36787944117144233 2.718281828459045 0.36787944117144233 2.718281828459045 0.36787944117144233 1.0 1.0 2.718281828459045 0.36787944117144233 2.718281828459045 0.36787944117144233 1.0 1.0 2.718281828459045 0.36787944117144233 2.718281828459045 0.36787944117144233 2.718281828459045 0.36787944117144233 2.718281828459045 0.36787944117144233 1.0 1.0 2.718281828459045 0.36787944117144233 2.718281828459045 0.36787944117144233 2.718281828459045 0.36787944117144233 2.718281828459045 0.36787944117144233 1.0 1.0 2.718281828459045 0.36787944117144233 2.718281828459045 0.36787944117144233 2.718281828459045 0.36787944117144233 2.718281828459045 0.36787944117144233 2.718281828459045 0.36787944117144233 2.718281828459045 0.36787944117144233 1.0 1.0 1.0 1.0 2.718281828459045 0.36787944117144233 2.718281828459045 0.36787944117144233 2.718281828459045 0.36787944117144233 2.718281828459045 0.36787944117144233 2.718281828459045 0.36787944117144233 1.0 1.0 2.718281828459045 0.36787944117144233 2.718281828459045 0.36787944117144233 2.718281828459045 0.36787944117144233 1.0 1.0 2.718281828459045 0.36787944117144233 2.718281828459045 0.36787944117144233 2.718281828459045 0.36787944117144233 2.718281828459045 0.36787944117144233 1.0 1.0 2.718281828459045 0.36787944117144233 2.718281828459045 0.36787944117144233 2.718281828459045 0.36787944117144233 2.718281828459045 0.36787944117144233 2.718281828459045 0.36787944117144233 2.718281828459045 0.36787944117144233 2.718281828459045 0.36787944117144233 1.0 1.0 2.718281828459045 0.36787944117144233 2.718281828459045 0.36787944117144233 2.718281828459045 0.36787944117144233 2.718281828459045 0.36787944117144233 2.718281828459045 0.36787944117144233 2.718281828459045 0.36787944117144233 1.0 1.0 2.718281828459045 0.36787944117144233 2.718281828459045 0.36787944117144233 2.718281828459045 0.36787944117144233 2.718281828459045 0.36787944117144233 1.0 1.0 2.718281828459045 0.36787944117144233 2.718281828459045 0.36787944117144233 2.718281828459045 0.36787944117144233 1.0 1.0 2.718281828459045 0.36787944117144233 1.0 1.0 2.718281828459045 0.36787944117144233 2.718281828459045 0.36787944117144233 2.718281828459045 0.36787944117144233 1.0 1.0 2.718281828459045 0.36787944117144233 2.718281828459045 0.36787944117144233 2.718281828459045 0.36787944117144233 2.718281828459045 0.36787944117144233 2.718281828459045 0.36787944117144233 2.718281828459045 0.36787944117144233 2.718281828459045 0.36787944117144233 1.0 1.0 2.718281828459045 0.36787944117144233 2.718281828459045 0.36787944117144233 2.718281828459045 0.36787944117144233 2.718281828459045 0.36787944117144233 2.718281828459045 0.36787944117144233 1.0 1.0 2.718281828459045 0.36787944117144233 2.718281828459045 0.36787944117144233 2.718281828459045 0.36787944117144233 2.718281828459045 0.36787944117144233 2.718281828459045 0.36787944117144233 1.0 1.0 2.718281828459045 0.36787944117144233 2.718281828459045 0.36787944117144233 2.718281828459045 0.36787944117144233 1.0 1.0 1.0 1.0 2.718281828459045 0.36787944117144233 2.718281828459045 0.36787944117144233 2.718281828459045 0.36787944117144233 2.718281828459045 0.36787944117144233 2.718281828459045 0.36787944117144233 2.718281828459045 0.36787944117144233 1.0 1.0 2.718281828459045 0.36787944117144233 2.718281828459045 0.36787944117144233 2.718281828459045 0.36787944117144233 1.0 1.0 2.718281828459045 0.36787944117144233 2.718281828459045 0.36787944117144233 2.718281828459045 0.36787944117144233 2.718281828459045 0.36787944117144233 1.0 1.0 2.718281828459045 0.36787944117144233 2.718281828459045 0.36787944117144233 2.718281828459045 0.36787944117144233 2.718281828459045 0.36787944117144233 1.0 1.0 2.718281828459045 0.36787944117144233 2.718281828459045 0.36787944117144233 2.718281828459045 0.36787944117144233 1.0 1.0 2.718281828459045 0.36787944117144233 2.718281828459045 0.36787944117144233 2.718281828459045 0.36787944117144233 2.718281828459045 0.36787944117144233 2.718281828459045 0.36787944117144233 1.0 1.0 2.718281828459045 0.36787944117144233 2.718281828459045 0.36787944117144233 2.718281828459045 0.36787944117144233 1.0 1.0 2.718281828459045 0.36787944117144233 2.718281828459045 0.36787944117144233 2.718281828459045 0.36787944117144233 1.0 1.0 2.718281828459045 0.36787944117144233 1.0 1.0 2.718281828459045 0.36787944117144233 2.718281828459045 0.36787944117144233 1.0 1.0 2.718281828459045 0.36787944117144233 2.718281828459045 0.36787944117144233 2.718281828459045 0.36787944117144233 2.718281828459045 0.36787944117144233 2.718281828459045 0.36787944117144233 2.718281828459045 0.36787944117144233 2.718281828459045 0.36787944117144233 1.0 1.0 2.718281828459045 0.36787944117144233 2.718281828459045 0.36787944117144233 2.718281828459045 0.36787944117144233 1.0 1.0 1.0 1.0 2.718281828459045 0.36787944117144233 2.718281828459045 0.36787944117144233 1.0 1.0 2.718281828459045 0.36787944117144233 2.718281828459045 0.36787944117144233 1.0 1.0 2.718281828459045 0.36787944117144233 2.718281828459045 0.36787944117144233 1.0 1.0 1.0 1.0 2.718281828459045 0.36787944117144233 1.0 1.0 2.718281828459045 0.36787944117144233 1.0 1.0 2.718281828459045 0.36787944117144233 1.0 1.0 2.718281828459045 0.36787944117144233 2.718281828459045 0.36787944117144233 1.0 1.0 2.718281828459045 0.36787944117144233 1.0 1.0 2.718281828459045 0.36787944117144233 2.718281828459045 0.36787944117144233 2.718281828459045 0.36787944117144233 1.0 1.0 2.718281828459045 0.36787944117144233 1.0 1.0 2.718281828459045 0.36787944117144233 1.0 1.0 1.0 1.0 2.718281828459045 0.36787944117144233 1.0 1.0 2.718281828459045 0.36787944117144233 1.0 1.0 2.718281828459045 0.36787944117144233 1.0 1.0 2.718281828459045 0.36787944117144233 2.718281828459045 0.36787944117144233 2.718281828459045 0.36787944117144233 1.0 1.0 2.718281828459045 0.36787944117144233 2.718281828459045 0.36787944117144233 2.718281828459045 0.36787944117144233 1.0 1.0 2.718281828459045 0.36787944117144233 1.0 1.0 1.0 1.0 2.718281828459045 0.36787944117144233 1.0 1.0 2.718281828459045 0.36787944117144233 1.0 1.0 1.0 1.0 1.0 1.0 2.718281828459045 0.36787944117144233 1.0 1.0 2.718281828459045 0.36787944117144233 2.718281828459045 0.36787944117144233 1.0 1.0 1.0 1.0 1.0 1.0 1.0 1.0 1.0 1.0 1.0 1.0 1.0 1.0 1.0 1.0 1.0 1.0
2 1 85 0
2 -1 -85 0
-2 1 -85 0
-2 -1 85 0
3 1 149 0
3 -1 -149 0
-3 1 -149 0
-3 -1 149 0
4 1 154 0
4 -1 -154 0
-4 1 -154 0
-4 -1 154 0
5 1 220 0
5 -1 -220 0
-5 1 -220 0
-5 -1 220 0
6 1 343 0
6 -1 -343 0
-6 1 -343 0
-6 -1 343 0
7 1 386 0
7 -1 -386 0
-7 1 -386 0
-7 -1 386 0
9 8 256 0
9 -8 -256 0
-9 8 -256 0
-9 -8 256 0
10 8 274 0
10 -8 -274 0
-10 8 -274 0
-10 -8 274 0
11 8 283 0
11 -8 -283 0
-11 8 -283 0
-11 -8 283 0
12 8 311 0
12 -8 -311 0
-12 8 -311 0
-12 -8 311 0
13 8 324 0
13 -8 -324 0
-13 8 -324 0
-13 -8 324 0
14 8 333 0
14 -8 -333 0
-14 8 -333 0
-14 -8 333 0
15 8 370 0
15 -8 -370 0
-15 8 -370 0
-15 -8 370 0
17 16 85 0
17 -16 -85 0
-17 16 -85 0
-17 -16 85 0
18 16 176 0
18 -16 -176 0
-18 16 -176 0
-18 -16 176 0
19 16 179 0
19 -16 -179 0
-19 16 -179 0
-19 -16 179 0
20 16 197 0
20 -16 -197 0
-20 16 -197 0
-20 -16 197 0
21 16 288 0
21 -16 -288 0
-21 16 -288 0
-21 -16 288 0
22 16 333 0
22 -16 -333 0
-22 16 -333 0
-22 -16 333 0
23 16 364 0
23 -16 -364 0
-23 16 -364 0
-23 -16 364 0
24 16 387 0
24 -16 -387 0
-24 16 -387 0
-24 -16 387 0
26 25 69 0
26 -25 -69 0
-26 25 -69 0
-26 -25 69 0
27 25 79 0
27 -25 -79 0
-27 25 -79 0
-27 -25 79 0
28 25 220 0
28 -25 -220 0
-28 25 -220 0
-28 -25 220 0
29 25 227 0
29 -25 -227 0
-29 25 -227 0
-29 -25 227 0
30 25 278 0
30 -25 -278 0
-30 25 -278 0
-30 -25 278 0
31 25 343 0
31 -25 -343 0
-31 25 -343 0
-31 -25 343 0
32 25 353 0
32 -25 -353 0
-32 25 -353 0
-32 -25 353 0
33 25 373 0
33 -25 -373 0
-33 25 -373 0
-33 -25 373 0
34 25 377 0
34 -25 -377 0
-34 25 -377 0
-34 -25 377 0
35 25 383 0
35 -25 -383 0
-35 25 -383 0
-35 -25 383 0
36 25 385 0
36 -25 -385 0
-36 25 -385 0
-36 -25 385 0
37 25 388 0
37 -25 -388 0
-37 25 -388 0
-37 -25 388 0
39 38 154 0
39 -38 -154 0
-39 38 -154 0
-39 -38 154 0
40 38 168 0
40 -38 -168 0
-40 38 -168 0
-40 -38 168 0
41 38 220 0
41 -38 -220 0
-41 38 -220 0
-41 -38 220 0
42 38 227 0
42 -38 -227 0
-42 38 -227 0
-42 -38 227 0
43 38 334 0
43 -38 -334 0
-43 38 -334 0
-43 -38 334 0
44 38 345 0
44 -38 -345 0
-44 38 -345 0
-44 -38 345 0
45 38 388 0
45 -38 -388 0
-45 38 -388 0
-45 -38 388 0
46 38 389 0
46 -38 -389 0
-46 38 -389 0
-46 -38 389 0
48 47 196 0
48 -47 -196 0
-48 47 -196 0
-48 -47 196 0
49 47 262 0
49 -47 -262 0
-49 47 -262 0
-49 -47 262 0
50 47 292 0
50 -47 -292 0
-50 47 -292 0
-50 -47 292 0
51 47 298 0
51 -47 -298 0
-51 47 -298 0
-51 -47 298 0
52 47 333 0
52 -47 -333 0
-52 47 -333 0
-52 -47 333 0
53 47 384 0
53 -47 -384 0
-53 47 -384 0
-53 -47 384 0
55 54 127 0
55 -54 -127 0
-55 54 -127 0
-55 -54 127 0
56 54 196 0
56 -54 -196 0
-56 54 -196 0
-56 -54 196 0
57 54 232 0
57 -54 -232 0
-57 54 -232 0
-57 -54 232 0
58 54 267 0
58 -54 -267 0
-58 54 -267 0
-58 -54 267 0
59 54 306 0
59 -54 -306 0
-59 54 -306 0
-59 -54 306 0
60 54 338 0
60 -54 -338 0
-60 54 -338 0
-60 -54 338 0
61 54 345 0
61 -54 -345 0
-61 54 -345 0
-61 -54 345 0
62 54 373 0
62 -54 -373 0
-62 54 -373 0
-62 -54 373 0
64 63 176 0
64 -63 -176 0
-64 63 -176 0
-64 -63 176 0
65 63 203 0
65 -63 -203 0
-65 63 -203 0
-65 -63 203 0
66 63 373 0
66 -63 -373 0
-66 63 -373 0
-66 -63 373 0
67 63 388 0
67 -63 -388 0
-67 63 -388 0
-67 -63 388 0
68 63 389 0
68 -63 -389 0
-68 63 -389 0
-68 -63 389 0
70 69 92 0
70 -69 -92 0
-70 69 -92 0
-70 -69 92 0
71 69 176 0
71 -69 -176 0
-71 69 -176 0
-71 -69 176 0
72 69 189 0
72 -69 -189 0
-72 69 -189 0
-72 -69 189 0
73 69 238 0
73 -69 -238 0
-73 69 -238 0
-73 -69 238 0
74 69 288 0
74 -69 -288 0
-74 69 -288 0
-74 -69 288 0
75 69 306 0
75 -69 -306 0
-75 69 -306 0
-75 -69 306 0
76 69 323 0
76 -69 -323 0
-76 69 -323 0
-76 -69 323 0
77 69 360 0
77 -69 -360 0
-77 69 -360 0
-77 -69 360 0
78 69 371 0
78 -69 -371 0
-78 69 -371 0
-78 -69 371 0
80 79 212 0
80 -79 -212 0
-80 79 -212 0
-80 -79 212 0
81 79 250 0
81 -79 -250 0
-81 79 -250 0
-81 -79 250 0
82 79 356 0
82 -79 -356 0
-82 79 -356 0
-82 -79 356 0
83 79 373 0
83 -79 -373 0
-83 79 -373 0
-83 -79 373 0
84 79 376 0
84 -79 -376 0
-84 79 -376 0
-84 -79 376 0
86 85 176 0
86 -85 -176 0
-86 85 -176 0
-86 -85 176 0
87 85 256 0
87 -85 -256 0
-87 85 -256 0
-87 -85 256 0
88 85 343 0
88 -85 -343 0
-88 85 -343 0
-88 -85 343 0
89 85 375 0
89 -85 -375 0
-89 85 -375 0
-89 -85 375 0
90 85 382 0
90 -85 -382 0
-90 85 -382 0
-90 -85 382 0
91 85 384 0
91 -85 -384 0
-91 85 -384 0
-91 -85 384 0
93 92 168 0
93 -92 -168 0
-93 92 -168 0
-93 -92 168 0
94 92 197 0
94 -92 -197 0
-94 92 -197 0
-94 -92 197 0
95 92 266 0
95 -92 -266 0
-95 92 -266 0
-95 -92 266 0
96 92 306 0
96 -92 -306 0
-96 92 -306 0
-96 -92 306 0
97 92 323 0
97 -92 -323 0
-97 92 -323 0
-97 -92 323 0
98 92 334 0
98 -92 -334 0
-98 92 -334 0
-98 -92 334 0
99 92 373 0
99 -92 -373 0
-99 92 -373 0
-99 -92 373 0
100 92 382 0
100 -92 -382 0
-100 92 -382 0
-100 -92 382 0
101 92 383 0
101 -92 -383 0
-101 92 -383 0
-101 -92 383 0
102 92 390 0
102 -92 -390 0
-102 92 -390 0
-102 -92 390 0
104 103 176 0
104 -103 -176 0
-104 103 -176 0
-104 -103 176 0
105 103 288 0
105 -103 -288 0
-105 103 -288 0
-105 -103 288 0
106 103 292 0
106 -103 -292 0
-106 103 -292 0
-106 -103 292 0
107 103 323 0
107 -103 -323 0
-107 103 -323 0
-107 -103 323 0
108 103 338 0
108 -103 -338 0
-108 103 -338 0
-108 -103 338 0
109 103 358 0
109 -103 -358 0
-109 103 -358 0
-109 -103 358 0
111 110 196 0
111 -110 -196 0
-111 110 -196 0
-111 -110 196 0
112 110 238 0
112 -110 -238 0
-112 110 -238 0
-112 -110 238 0
113 110 360 0
113 -110 -360 0
-113 110 -360 0
-113 -110 360 0
115 114 145 0
115 -114 -145 0
-115 114 -145 0
-115 -114 145 0
116 114 154 0
116 -114 -154 0
-116 114 -154 0
-116 -114 154 0
117 114 220 0
117 -114 -220 0
-117 114 -220 0
-117 -114 220 0
118 114 256 0
118 -114 -256 0
-118 114 -256 0
-118 -114 256 0
119 114 311 0
119 -114 -311 0
-119 114 -311 0
-119 -114 311 0
120 114 360 0
120 -114 -360 0
-120 114 -360 0
-120 -114 360 0
121 114 390 0
121 -114 -390 0
-121 114 -390 0
-121 -114 390 0
123 122 220 0
123 -122 -220 0
-123 122 -220 0
-123 -122 220 0
124 122 298 0
124 -122 -298 0
-124 122 -298 0
-124 -122 298 0
125 122 323 0
125 -122 -323 0
-125 122 -323 0
-125 -122 323 0
126 122 376 0
126 -122 -376 0
-126 122 -376 0
-126 -122 376 0
128 127 133 0
128 -127 -133 0
-128 127 -133 0
-128 -127 133 0
129 127 292 0
129 -127 -292 0
-129 127 -292 0
-129 -127 292 0
130 127 336 0
130 -127 -336 0
-130 127 -336 0
-130 -127 336 0
131 127 345 0
131 -127 -345 0
-131 127 -345 0
-131 -127 345 0
132 127 371 0
132 -127 -371 0
-132 127 -371 0
-132 -127 371 0
134 133 256 0
134 -133 -256 0
-134 133 -256 0
-134 -133 256 0
135 133 267 0
135 -133 -267 0
-135 133 -267 0
-135 -133 267 0
136 133 292 0
136 -133 -292 0
-136 133 -292 0
-136 -133 292 0
137 133 311 0
137 -133 -311 0
-137 133 -311 0
-137 -133 311 0
138 133 319 0
138 -133 -319 0
-138 133 -319 0
-138 -133 319 0
139 133 323 0
139 -133 -323 0
-139 133 -323 0
-139 -133 323 0
140 133 324 0
140 -133 -324 0
-140 133 -324 0
-140 -133 324 0
141 133 333 0
141 -133 -333 0
-141 133 -333 0
-141 -133 333 0
142 133 358 0
142 -133 -358 0
-142 133 -358 0
-142 -133 358 0
143 133 368 0
143 -133 -368 0
-143 133 -368 0
-143 -133 368 0
144 133 384 0
144 -133 -384 0
-144 133 -384 0
-144 -133 384 0
146 145 238 0
146 -145 -238 0
-146 145 -238 0
-146 -145 238 0
147 145 283 0
147 -145 -283 0
-147 145 -283 0
-147 -145 283 0
148 145 379 0
148 -145 -379 0
-148 145 -379 0
-148 -145 379 0
150 149 212 0
150 -149 -212 0
-150 149 -212 0
-150 -149 212 0
151 149 292 0
151 -149 -292 0
-151 149 -292 0
-151 -149 292 0
152 149 349 0
152 -149 -349 0
-152 149 -349 0
-152 -149 349 0
153 149 388 0
153 -149 -388 0
-153 149 -388 0
-153 -149 388 0
155 154 203 0
155 -154 -203 0
-155 154 -203 0
-155 -154 203 0
156 154 274 0
156 -154 -274 0
-156 154 -274 0
-156 -154 274 0
157 154 288 0
157 -154 -288 0
-157 154 -288 0
-157 -154 288 0
158 154 306 0
158 -154 -306 0
-158 154 -306 0
-158 -154 306 0
159 154 375 0
159 -154 -375 0
-159 154 -375 0
-159 -154 375 0
160 154 376 0
160 -154 -376 0
-160 154 -376 0
-160 -154 376 0
161 154 384 0
161 -154 -384 0
-161 154 -384 0
-161 -154 384 0
162 154 390 0
162 -154 -390 0
-162 154 -390 0
-162 -154 390 0
164 163 189 0
164 -163 -189 0
-164 163 -189 0
-164 -163 189 0
165 163 242 0
165 -163 -242 0
-165 163 -242 0
-165 -163 242 0
166 163 371 0
166 -163 -371 0
-166 163 -371 0
-166 -163 371 0
167 163 386 0
167 -163 -386 0
-167 163 -386 0
-167 -163 386 0
169 168 212 0
169 -168 -212 0
-169 168 -212 0
-169 -168 212 0
170 168 220 0
170 -168 -220 0
-170 168 -220 0
-170 -168 220 0
171 168 236 0
171 -168 -236 0
-171 168 -236 0
-171 -168 236 0
172 168 324 0
172 -168 -324 0
-172 168 -324 0
-172 -168 324 0
173 168 336 0
173 -168 -336 0
-173 168 -336 0
-173 -168 336 0
174 168 376 0
174 -168 -376 0
-174 168 -376 0
-174 -168 376 0
175 168 387 0
175 -168 -387 0
-175 168 -387 0
-175 -168 387 0
177 176 283 0
177 -176 -283 0
-177 176 -283 0
-177 -176 283 0
178 176 360 0
178 -176 -360 0
-178 176 -360 0
-178 -176 360 0
180 179 227 0
180 -179 -227 0
-180 179 -227 0
-180 -179 227 0
181 179 256 0
181 -179 -256 0
-181 179 -256 0
-181 -179 256 0
182 179 298 0
182 -179 -298 0
-182 179 -298 0
-182 -179 298 0
183 179 386 0
183 -179 -386 0
-183 179 -386 0
-183 -179 386 0
185 184 340 0
185 -184 -340 0
-185 184 -340 0
-185 -184 340 0
186 184 360 0
186 -184 -360 0
-186 184 -360 0
-186 -184 360 0
187 184 370 0
187 -184 -370 0
-187 184 -370 0
-187 -184 370 0
188 184 373 0
188 -184 -373 0
-188 184 -373 0
-188 -184 373 0
190 189 196 0
190 -189 -196 0
-190 189 -196 0
-190 -189 196 0
191 189 220 0
191 -189 -220 0
-191 189 -220 0
-191 -189 220 0
192 189 238 0
192 -189 -238 0
-192 189 -238 0
-192 -189 238 0
193 189 262 0
193 -189 -262 0
-193 189 -262 0
-193 -189 262 0
194 189 323 0
194 -189 -323 0
-194 189 -323 0
-194 -189 323 0
195 189 354 0
195 -189 -354 0
-195 189 -354 0
-195 -189 354 0
198 197 212 0
198 -197 -212 0
-198 197 -212 0
-198 -197 212 0
199 197 327 0
199 -197 -327 0
-199 197 -327 0
-199 -197 327 0
200 197 360 0
200 -197 -360 0
-200 197 -360 0
-200 -197 360 0
201 197 385 0
201 -197 -385 0
-201 197 -385 0
-201 -197 385 0
202 197 386 0
202 -197 -386 0
-202 197 -386 0
-202 -197 386 0
204 203 262 0
204 -203 -262 0
-204 203 -262 0
-204 -203 262 0
205 203 266 0
205 -203 -266 0
-205 203 -266 0
-205 -203 266 0
206 203 364 0
206 -203 -364 0
-206 203 -364 0
-206 -203 364 0
208 207 236 0
208 -207 -236 0
-208 207 -236 0
-208 -207 236 0
209 207 370 0
209 -207 -370 0
-209 207 -370 0
-209 -207 370 0
210 207 376 0
210 -207 -376 0
-210 207 -376 0
-210 -207 376 0
211 207 382 0
211 -207 -382 0
-211 207 -382 0
-211 -207 382 0
213 212 220 0
213 -212 -220 0
-213 212 -220 0
-213 -212 220 0
214 212 238 0
214 -212 -238 0
-214 212 -238 0
-214 -212 238 0
215 212 283 0
215 -212 -283 0
-215 212 -283 0
-215 -212 283 0
216 212 306 0
216 -212 -306 0
-216 212 -306 0
-216 -212 306 0
217 212 358 0
217 -212 -358 0
-217 212 -358 0
-217 -212 358 0
218 212 364 0
218 -212 -364 0
-218 212 -364 0
-218 -212 364 0
219 212 390 0
219 -212 -390 0
-219 212 -390 0
-219 -212 390 0
221 220 236 0
221 -220 -236 0
-221 220 -236 0
-221 -220 236 0
222 220 330 0
222 -220 -330 0
-222 220 -330 0
-222 -220 330 0
223 220 333 0
223 -220 -333 0
-223 220 -333 0
-223 -220 333 0
224 220 343 0
224 -220 -343 0
-224 220 -343 0
-224 -220 343 0
225 220 356 0
225 -220 -356 0
-225 220 -356 0
-225 -220 356 0
226 220 388 0
226 -220 -388 0
-226 220 -388 0
-226 -220 388 0
228 227 338 0
228 -227 -338 0
-228 227 -338 0
-228 -227 338 0
229 227 343 0
229 -227 -343 0
-229 227 -343 0
-229 -227 343 0
230 227 353 0
230 -227 -353 0
-230 227 -353 0
-230 -227 353 0
231 227 379 0
231 -227 -379 0
-231 227 -379 0
-231 -227 379 0
233 232 250 0
233 -232 -250 0
-233 232 -250 0
-233 -232 250 0
234 232 311 0
234 -232 -311 0
-234 232 -311 0
-234 -232 311 0
235 232 343 0
235 -232 -343 0
-235 232 -343 0
-235 -232 343 0
237 236 345 0
237 -236 -345 0
-237 236 -345 0
-237 -236 345 0
239 238 274 0
239 -238 -274 0
-239 238 -274 0
-239 -238 274 0
240 238 354 0
240 -238 -354 0
-240 238 -354 0
-240 -238 354 0
241 238 358 0
241 -238 -358 0
-241 238 -358 0
-241 -238 358 0
243 242 278 0
243 -242 -278 0
-243 242 -278 0
-243 -242 278 0
244 242 324 0
244 -242 -324 0
-244 242 -324 0
-244 -242 324 0
245 242 330 0
245 -242 -330 0
-245 242 -330 0
-245 -242 330 0
246 242 345 0
246 -242 -345 0
-246 242 -345 0
-246 -242 345 0
247 242 356 0
247 -242 -356 0
-247 242 -356 0
-247 -242 356 0
248 242 368 0
248 -242 -368 0
-248 242 -368 0
-248 -242 368 0
249 242 375 0
249 -242 -375 0
-249 242 -375 0
-249 -242 375 0
251 250 311 0
251 -250 -311 0
-251 250 -311 0
-251 -250 311 0
252 250 336 0
252 -250 -336 0
-252 250 -336 0
-252 -250 336 0
253 250 358 0
253 -250 -358 0
-253 250 -358 0
-253 -250 358 0
254 250 373 0
254 -250 -373 0
-254 250 -373 0
-254 -250 373 0
255 250 389 0
255 -250 -389 0
-255 250 -389 0
-255 -250 389 0
257 256 311 0
257 -256 -311 0
-257 256 -311 0
-257 -256 311 0
258 256 333 0
258 -256 -333 0
-258 256 -333 0
-258 -256 333 0
259 256 336 0
259 -256 -336 0
-259 256 -336 0
-259 -256 336 0
260 256 354 0
260 -256 -354 0
-260 256 -354 0
-260 -256 354 0
261 256 390 0
261 -256 -390 0
-261 256 -390 0
-261 -256 390 0
263 262 306 0
263 -262 -306 0
-263 262 -306 0
-263 -262 306 0
264 262 370 0
264 -262 -370 0
-264 262 -370 0
-264 -262 370 0
265 262 377 0
265 -262 -377 0
-265 262 -377 0
-265 -262 377 0
268 267 288 0
268 -267 -288 0
-268 267 -288 0
-268 -267 288 0
269 267 298 0
269 -267 -298 0
-269 267 -298 0
-269 -267 298 0
270 267 306 0
270 -267 -306 0
-270 267 -306 0
-270 -267 306 0
271 267 323 0
271 -267 -323 0
-271 267 -323 0
-271 -267 323 0
272 267 375 0
272 -267 -375 0
-272 267 -375 0
-272 -267 375 0
273 267 388 0
273 -267 -388 0
-273 267 -388 0
-273 -267 388 0
275 274 278 0
275 -274 -278 0
-275 274 -278 0
-275 -274 278 0
276 274 351 0
276 -274 -351 0
-276 274 -351 0
-276 -274 351 0
277 274 385 0
277 -274 -385 0
-277 274 -385 0
-277 -274 385 0
279 278 336 0
279 -278 -336 0
-279 278 -336 0
-279 -278 336 0
280 278 338 0
280 -278 -338 0
-280 278 -338 0
-280 -278 338 0
281 278 370 0
281 -278 -370 0
-281 278 -370 0
-281 -278 370 0
282 278 383 0
282 -278 -383 0
-282 278 -383 0
-282 -278 383 0
284 283 323 0
284 -283 -323 0
-284 283 -323 0
-284 -283 323 0
285 283 333 0
285 -283 -333 0
-285 283 -333 0
-285 -283 333 0
286 283 358 0
286 -283 -358 0
-286 283 -358 0
-286 -283 358 0
287 283 371 0
287 -283 -371 0
-287 283 -371 0
-287 -283 371 0
289 288 330 0
289 -288 -330 0
-289 288 -330 0
-289 -288 330 0
290 288 370 0
290 -288 -370 0
-290 288 -370 0
-290 -288 370 0
291 288 382 0
291 -288 -382 0
-291 288 -382 0
-291 -288 382 0
293 292 330 0
293 -292 -330 0
-293 292 -330 0
-293 -292 330 0
294 292 333 0
294 -292 -333 0
-294 292 -333 0
-294 -292 333 0
295 292 354 0
295 -292 -354 0
-295 292 -354 0
-295 -292 354 0
296 292 358 0
296 -292 -358 0
-296 292 -358 0
-296 -292 358 0
297 292 360 0
297 -292 -360 0
-297 292 -360 0
-297 -292 360 0
299 298 345 0
299 -298 -345 0
-299 298 -345 0
-299 -298 345 0
300 298 354 0
300 -298 -354 0
-300 298 -354 0
-300 -298 354 0
301 298 383 0
301 -298 -383 0
-301 298 -383 0
-301 -298 383 0
303 302 324 0
303 -302 -324 0
-303 302 -324 0
-303 -302 324 0
304 302 338 0
304 -302 -338 0
-304 302 -338 0
-304 -302 338 0
305 302 358 0
305 -302 -358 0
-305 302 -358 0
-305 -302 358 0
307 306 376 0
307 -306 -376 0
-307 306 -376 0
-307 -306 376 0
309 308 311 0
309 -308 -311 0
-309 308 -311 0
-309 -308 311 0
310 308 375 0
310 -308 -375 0
-310 308 -375 0
-310 -308 375 0
312 311 319 0
312 -311 -319 0
-312 311 -319 0
-312 -311 319 0
313 311 333 0
313 -311 -333 0
-313 311 -333 0
-313 -311 333 0
314 311 338 0
314 -311 -338 0
-314 311 -338 0
-314 -311 338 0
315 311 343 0
315 -311 -343 0
-315 311 -343 0
-315 -311 343 0
316 311 375 0
316 -311 -375 0
-316 311 -375 0
-316 -311 375 0
317 311 376 0
317 -311 -376 0
-317 311 -376 0
-317 -311 376 0
318 311 379 0
318 -311 -379 0
-318 311 -379 0
-318 -311 379 0
320 319 358 0
320 -319 -358 0
-320 319 -358 0
-320 -319 358 0
321 319 360 0
321 -319 -360 0
-321 319 -360 0
-321 -319 360 0
322 319 368 0
322 -319 -368 0
-322 319 -368 0
-322 -319 368 0
325 324 377 0
325 -324 -377 0
-325 324 -377 0
-325 -324 377 0
326 324 382 0
326 -324 -382 0
-326 324 -382 0
-326 -324 382 0
328 327 336 0
328 -327 -336 0
-328 327 -336 0
-328 -327 336 0
329 327 353 0
329 -327 -353 0
-329 327 -353 0
-329 -327 353 0
331 330 354 0
331 -330 -354 0
-331 330 -354 0
-331 -330 354 0
332 330 360 0
332 -330 -360 0
-332 330 -360 0
-332 -330 360 0
335 334 383 0
335 -334 -383 0
-335 334 -383 0
-335 -334 383 0
337 336 349 0
337 -336 -349 0
-337 336 -349 0
-337 -336 349 0
339 338 340 0
339 -338 -340 0
-339 338 -340 0
-339 -338 340 0
341 340 345 0
341 -340 -345 0
-341 340 -345 0
-341 -340 345 0
342 340 390 0
342 -340 -390 0
-342 340 -390 0
-342 -340 390 0
344 343 383 0
344 -343 -383 0
-344 343 -383 0
-344 -343 383 0
346 345 356 0
346 -345 -356 0
-346 345 -356 0
-346 -345 356 0
347 345 358 0
347 -345 -358 0
-347 345 -358 0
-347 -345 358 0
348 345 373 0
348 -345 -373 0
-348 345 -373 0
-348 -345 373 0
350 349 385 0
350 -349 -385 0
-350 349 -385 0
-350 -349 385 0
352 351 368 0
352 -351 -368 0
-352 351 -368 0
-352 -351 368 0
355 354 376 0
355 -354 -376 0
-355 354 -376 0
-355 -354 376 0
357 356 360 0
357 -356 -360 0
-357 356 -360 0
-357 -356 360 0
359 358 377 0
359 -358 -377 0
-359 358 -377 0
-359 -358 377 0
361 360 373 0
361 -360 -373 0
-361 360 -373 0
-361 -360 373 0
362 360 377 0
362 -360 -377 0
-362 360 -377 0
-362 -360 377 0
363 360 389 0
363 -360 -389 0
-363 360 -389 0
-363 -360 389 0
365 364 368 0
365 -364 -368 0
-365 364 -368 0
-365 -364 368 0
366 364 376 0
366 -364 -376 0
-366 364 -376 0
-366 -364 376 0
367 364 383 0
367 -364 -383 0
-367 364 -383 0
-367 -364 383 0
369 368 371 0
369 -368 -371 0
-369 368 -371 0
-369 -368 371 0
372 371 375 0
372 -371 -375 0
-372 371 -375 0
-372 -371 375 0
374 373 389 0
374 -373 -389 0
-374 373 -389 0
-374 -373 389 0
378 377 379 0
378 -377 -379 0
-378 377 -379 0
-378 -377 379 0
380 379 384 0
380 -379 -384 0
-380 379 -384 0
-380 -379 384 0
381 379 387 0
381 -379 -387 0
-381 379 -387 0
-381 -379 387 0
